% Automatically generated DZN file for Lot Sizing Problem

nb_item_types = 8;
nb_orders = 12;
nb_periods = 15;
inventory_cost = 10;

% item-type-1:		order-1, 
% item-type-2:		order-2, order-3, 
% item-type-3:		order-4, 
% item-type-4:		order-5, 
% item-type-5:		order-6, order-7, 
% item-type-6:		order-8, order-9, 
% item-type-7:		order-10, 
% item-type-8:		order-11, order-12, 

due_period = [ 9, 10, 13, 11, 14, 10, 11, 11, 15, 7, 10, 12,  ];
change_cost = array2d(Orders0, Orders0, [
% 	0   o1  o2  o3  o4  o5  o6  o7  o8  o9  o10  o11  o12  
	 0,  0,  0,  0,  0,  0,  0,  0,  0,  0,  0,  0,  0,   % 0
	 0,  0,  78,  78,  86,  93,  120,  120,  12,  12,  155,  20,  20,   % o1
	 0,  165,  0,  0,  193,  213,  178,  178,  12,  12,  90,  20,  20,   % o2
	 0,  165,  0,  0,  193,  213,  178,  178,  12,  12,  90,  20,  20,   % o3
	 0,  214,  170,  170,  0,  190,  185,  185,  12,  12,  40,  20,  20,   % o4
	 0,  178,  177,  177,  185,  0,  196,  196,  12,  12,  155,  66,  66,   % o5
	 0,  201,  199,  199,  215,  190,  0,  0,  12,  12,  155,  20,  20,   % o6
	 0,  201,  199,  199,  215,  190,  0,  0,  12,  12,  155,  20,  20,   % o7
	 0,  201,  100,  100,  88,  190,  14,  14,  0,  0,  75,  70,  70,   % o8
	 0,  201,  100,  100,  88,  190,  14,  14,  0,  0,  75,  70,  70,   % o9
	 0,  50,  44,  44,  155,  190,  111,  111,  12,  12,  0,  20,  20,   % o10
	 0,  201,  199,  199,  215,  190,  123,  123,  70,  70,  155,  0,  0,   % o11
	 0,  201,  199,  199,  215,  190,  123,  123,  70,  70,  155,  0,  0,   % o12
]);

nb_of_orders = [1, 2, 1, 1, 2, 2, 1, 2, ];
item_type = array1d(Orders0, [0, 1, 2, 2, 3, 4, 5, 5, 6, 6, 7, 8, 8, ]);


% solution:
production_by_order = array1d(1..15, [0, 0, 4, 10, 1, 3, 2, 11, 8, 6, 7, 12, 0, 5, 9]);
production_by_item = array1d(1..15, [0, 0, 3, 7, 1, 2, 2, 8, 6, 5, 5, 8, 0, 4, 6]);
production_period = array1d(1..12, [5, 7, 6, 3, 14, 10, 11, 9, 15, 4, 8, 12]);
inventory_periods = array1d(1..12, [4, 3, 7, 8, 0, 0, 0, 2, 0, 3, 2, 0]);
change_cost_for_period = array1d(1..14, [0, 0, 40, 50, 78, 0, 20, 70, 14, 0, 20, 0, 190, 12]);
no_production = array1d(1..15, [0, 0, 0, 0, 0, 0, 0, 0, 0, 0, 0, 0, 0, 0, 0]);
production_order = array1d(1..15, [0, 0, 4, 10, 1, 3, 2, 11, 8, 6, 7, 12, 12, 5, 9]);
objective = 784; 

% with item-variables
%%%mzn-stat initTime=0.003133
%%%mzn-stat solveTime=747.474
%%%mzn-stat solutions=22
%%%mzn-stat variables=169
%%%mzn-stat propagators=180
%%%mzn-stat propagations=1134632978
%%%mzn-stat nodes=18969110
%%%mzn-stat failures=9484529
%%%mzn-stat restarts=0
%%%mzn-stat peakDepth=52
%%%mzn-stat-end

% witout item-variables, to optimality:
%%%mzn-stat initTime=0.001666
%%%mzn-stat solveTime=607.075
%%%mzn-stat solutions=26
%%%mzn-stat variables=154
%%%mzn-stat propagators=149
%%%mzn-stat propagations=951075087
%%%mzn-stat nodes=18420589
%%%mzn-stat failures=9210269
%%%mzn-stat restarts=0
%%%mzn-stat peakDepth=52
%%%mzn-stat-end

% with symmetry breaking constraints:
%%%mzn-stat initTime=0.001674
%%%mzn-stat solveTime=561.474
%%%mzn-stat solutions=31
%%%mzn-stat variables=154
%%%mzn-stat propagators=153
%%%mzn-stat propagations=907660779
%%%mzn-stat nodes=17559669
%%%mzn-stat failures=8779804
%%%mzn-stat restarts=0
%%%mzn-stat peakDepth=45
%%%mzn-stat-end

% with sym breaking and tighter bounds, unused vars removed
%%%mzn-stat initTime=0.002581
%%%mzn-stat solveTime=549.963
%%%mzn-stat solutions=29
%%%mzn-stat variables=124
%%%mzn-stat propagators=153
%%%mzn-stat propagations=907715160
%%%mzn-stat nodes=17592523
%%%mzn-stat failures=8796233
%%%mzn-stat restarts=0
%%%mzn-stat peakDepth=46
%%%mzn-stat-end
%Finished in 9m 10s